DATASET = "thpack2";
INSTANCE = "007";

WIDTH = 233;
HEIGHT = 220;
LENGTH = 587;

NO_OF_SHAPES = 5;
size = [|
  118,79,51 |
  86,32,31 |
  64,58,52 |
  42,42,32 |
  64,55,43 |
|];

verticality = [|
  0,1,1 |
  0,1,1 |
  1,1,1 |
  1,1,1 |
  1,1,1 |
|];

box_count = [
  28,
  31,
  28,
  39,
  40,
];
